(set-info :source |printed by MathSAT|)
(declare-fun counter@2 () (_ BitVec 32))
(declare-fun _x@2 () (_ BitVec 64))
(declare-fun |__ADDRESS_OF_main::xy@| () (_ BitVec 32))
(declare-fun |main::tmp_var_2_int@2| () (_ BitVec 32))
(declare-fun |assume::cond@2| () (_ BitVec 32))
(declare-fun |main::xy$_4_4_@2| () (_ BitVec 64))
(declare-fun |assume::cond@4| () (_ BitVec 32))
(declare-fun _x@3 () (_ BitVec 64))
(declare-fun counter@3 () (_ BitVec 32))
(declare-fun counter@4 () (_ BitVec 32))
(declare-fun |main::__CPAchecker_TMP_6@3| () (_ BitVec 8))
(declare-fun counter@5 () (_ BitVec 32))
(declare-fun |main::b@5| () (_ BitVec 64))
(declare-fun |main::p@5| () (_ BitVec 64))
(declare-fun |main::q@5| () (_ BitVec 64))
(declare-fun |main::r@5| () (_ BitVec 64))
(declare-fun |main::s@5| () (_ BitVec 64))
(declare-fun |main::c@5| () (_ BitVec 64))
(declare-fun |assume::cond@6| () (_ BitVec 32))
(declare-fun |assume::cond@8| () (_ BitVec 32))
(declare-fun |main::lVar4@7| () (_ BitVec 64))
(declare-fun |main::lVar3@7| () (_ BitVec 64))
(declare-fun |main::iVar2@7| () (_ BitVec 32))
(declare-fun |main::k@7| () (_ BitVec 64))
(declare-fun |main::iVar2@8| () (_ BitVec 32))
(declare-fun |main::bVar1@7| () (_ BitVec 8))
(declare-fun |main::b@8| () (_ BitVec 64))
(declare-fun |main::p@8| () (_ BitVec 64))
(declare-fun |main::q@8| () (_ BitVec 64))
(declare-fun |main::r@8| () (_ BitVec 64))
(declare-fun |main::s@8| () (_ BitVec 64))
(declare-fun |main::c@8| () (_ BitVec 64))
(declare-fun |main::lVar4@8| () (_ BitVec 64))
(declare-fun |main::lVar3@8| () (_ BitVec 64))
(declare-fun |main::iVar2@9| () (_ BitVec 32))
(assert (let ((.def_51 ((_ sign_extend 32) |main::tmp_var_2_int@2|)))(let ((.def_549 (bvmul .def_51 |main::r@8|)))(let ((.def_552 (bvneg .def_549)))(let ((.def_548 (bvmul |main::xy$_4_4_@2| |main::c@8|)))(let ((.def_553 (= .def_548 .def_552)))(let ((.def_554 (not .def_553)))(let ((.def_546 (= counter@5 |main::iVar2@9|)))(let ((.def_323 (bvadd (_ bv1 32) counter@4)))(let ((.def_543 (= .def_323 |main::iVar2@9|)))(let ((.def_540 (= |main::s@8| |main::lVar3@8|)))(let ((.def_537 (= |main::q@8| |main::lVar4@8|)))(let ((.def_529 (bvmul _x@3 |main::c@5|)))(let ((.def_531 (bvneg .def_529)))(let ((.def_532 (bvadd |main::lVar3@7| .def_531)))(let ((.def_534 (= .def_532 |main::c@8|)))(let ((.def_526 (= |main::c@5| |main::s@8|)))(let ((.def_518 (bvmul _x@3 |main::r@5|)))(let ((.def_520 (bvneg .def_518)))(let ((.def_521 (bvadd |main::lVar4@7| .def_520)))(let ((.def_523 (= .def_521 |main::r@8|)))(let ((.def_515 (= |main::r@5| |main::q@8|)))(let ((.def_512 (= |main::k@7| |main::p@8|)))(let ((.def_509 (= |main::p@5| |main::b@8|)))(let ((.def_505 (= |main::__CPAchecker_TMP_6@3| |main::bVar1@7|)))(let ((.def_503 (= counter@4 |main::iVar2@8|)))(let ((.def_130 (bvslt counter@3 (_ bv1 32))))(let ((.def_131 (ite .def_130 (_ bv1 32) (_ bv0 32))))(let ((.def_134 (= .def_131 (_ bv0 32))))(let ((.def_135 (ite .def_134 (_ bv0 8) (_ bv1 8))))(let ((.def_501 (= .def_135 |main::bVar1@7|)))(let ((.def_126 (bvadd (_ bv1 32) counter@3)))(let ((.def_498 (= .def_126 |main::iVar2@8|)))(let ((.def_495 (= counter@3 |main::iVar2@7|)))(let ((.def_492 (= |main::b@5| |main::k@7|)))(let ((.def_487 (= |main::p@5| (_ bv0 64))))(let ((.def_489 (not .def_487)))(let ((.def_102 (bvadd (_ bv1 32) counter@2)))(let ((.def_484 (= .def_102 |main::iVar2@7|)))(let ((.def_481 (= |main::s@5| |main::lVar3@7|)))(let ((.def_478 (= |main::q@5| |main::lVar4@7|)))(let ((.def_473 (= |assume::cond@8| (_ bv0 32))))(let ((.def_475 (not .def_473)))(let ((.def_71 ((_ extract 31 0) |main::xy$_4_4_@2|)))(let ((.def_84 (bvmul .def_71 .def_71)))(let ((.def_85 (bvslt .def_84 (_ bv2147483647 32))))(let ((.def_86 (ite .def_85 (_ bv1 32) (_ bv0 32))))(let ((.def_471 (= .def_86 |assume::cond@8|)))(let ((.def_466 (= |assume::cond@6| (_ bv0 32))))(let ((.def_468 (not .def_466)))(let ((.def_72 (bvmul |main::tmp_var_2_int@2| .def_71)))(let ((.def_74 (bvslt .def_72 (_ bv2147483647 32))))(let ((.def_75 (ite .def_74 (_ bv1 32) (_ bv0 32))))(let ((.def_464 (= .def_75 |assume::cond@6|)))(let ((.def_461 (= |main::c@5| (_ bv1 64))))(let ((.def_458 (= |main::s@5| (_ bv0 64))))(let ((.def_455 (= |main::r@5| (_ bv0 64))))(let ((.def_452 (= |main::q@5| (_ bv1 64))))(let ((.def_449 (= |main::xy$_4_4_@2| |main::p@5|)))(let ((.def_446 (= .def_51 |main::b@5|)))(let ((.def_41 (bvslt (_ bv0 64) |main::xy$_4_4_@2|)))(let ((.def_42 (ite .def_41 (_ bv1 32) (_ bv0 32))))(let ((.def_442 (= .def_42 |assume::cond@4|)))(let ((.def_34 (= |assume::cond@2| (_ bv0 32))))(let ((.def_37 (not .def_34)))(let ((.def_29 (bvslt (_ bv0 32) |main::tmp_var_2_int@2|)))(let ((.def_30 (ite .def_29 (_ bv1 32) (_ bv0 32))))(let ((.def_32 (= .def_30 |assume::cond@2|)))(let ((.def_20 (bvurem |__ADDRESS_OF_main::xy@| (_ bv4 32))))(let ((.def_21 (= .def_20 (_ bv0 32))))(let ((.def_19 (bvslt (_ bv0 32) |__ADDRESS_OF_main::xy@|)))(let ((.def_25 (and .def_19 .def_21)))(let ((.def_23 (bvadd (_ bv8 32) |__ADDRESS_OF_main::xy@|)))(let ((.def_24 (bvslt (_ bv0 32) .def_23)))(let ((.def_26 (and .def_24 .def_25)))(let ((.def_15 (= _x@2 (_ bv0 64))))(let ((.def_11 (= counter@2 (_ bv0 32))))(let ((.def_16 (and .def_11 .def_15)))(let ((.def_27 (and .def_16 .def_26)))(let ((.def_33 (and .def_27 .def_32)))(let ((.def_38 (and .def_33 .def_37)))(let ((.def_443 (and .def_38 .def_442)))(let ((.def_79 (= |assume::cond@4| (_ bv0 32))))(let ((.def_82 (not .def_79)))(let ((.def_444 (and .def_82 .def_443)))(let ((.def_447 (and .def_444 .def_446)))(let ((.def_450 (and .def_447 .def_449)))(let ((.def_453 (and .def_450 .def_452)))(let ((.def_456 (and .def_453 .def_455)))(let ((.def_459 (and .def_456 .def_458)))(let ((.def_462 (and .def_459 .def_461)))(let ((.def_465 (and .def_462 .def_464)))(let ((.def_469 (and .def_465 .def_468)))(let ((.def_472 (and .def_469 .def_471)))(let ((.def_476 (and .def_472 .def_475)))(let ((.def_479 (and .def_476 .def_478)))(let ((.def_482 (and .def_479 .def_481)))(let ((.def_485 (and .def_482 .def_484)))(let ((.def_106 (bvslt (_ bv0 32) counter@2)))(let ((.def_109 (not .def_106)))(let ((.def_486 (and .def_109 .def_485)))(let ((.def_490 (and .def_486 .def_489)))(let ((.def_493 (and .def_490 .def_492)))(let ((.def_120 (= _x@3 (_ bv0 64))))(let ((.def_494 (and .def_120 .def_493)))(let ((.def_496 (and .def_494 .def_495)))(let ((.def_499 (and .def_496 .def_498)))(let ((.def_502 (and .def_499 .def_501)))(let ((.def_504 (and .def_502 .def_503)))(let ((.def_506 (and .def_504 .def_505)))(let ((.def_147 (= |main::__CPAchecker_TMP_6@3| (_ bv0 8))))(let ((.def_507 (and .def_147 .def_506)))(let ((.def_510 (and .def_507 .def_509)))(let ((.def_513 (and .def_510 .def_512)))(let ((.def_516 (and .def_513 .def_515)))(let ((.def_524 (and .def_516 .def_523)))(let ((.def_527 (and .def_524 .def_526)))(let ((.def_535 (and .def_527 .def_534)))(let ((.def_538 (and .def_535 .def_537)))(let ((.def_541 (and .def_538 .def_540)))(let ((.def_544 (and .def_541 .def_543)))(let ((.def_327 (bvslt (_ bv0 32) counter@4)))(let ((.def_545 (and .def_327 .def_544)))(let ((.def_547 (and .def_545 .def_546)))(let ((.def_556 (and .def_547 .def_554))).def_556)))))))))))))))))))))))))))))))))))))))))))))))))))))))))))))))))))))))))))))))))))))))))))))))))))))))))))))))))))))))))))))